40	100	100	100
11	27	11
28	32	27
10	19	16
16	15	27
1	26	14
22	5	27
5	21	16
17	7	29
1	32	1
10	26	2
26	18	31
16	1	21
6	13	23
17	30	19
16	5	30
15	28	18
11	15	14
15	4	31
26	26	28
28	5	18
2	30	18
23	18	34
29	19	26
9	33	2
13	1	29
4	12	12
1	20	2
5	24	29
24	34	14
24	32	22
31	8	18
13	6	6
11	6	30
5	28	5
5	31	7
7	27	12
28	17	32
15	5	10
1	30	11
7	27	14
